networks/zoo_34_217/zoo_34_217.sol
<?xml version = "1.0" encoding="UTF-8" standalone="yes"?>
<CPLEXSolution version="1.2">
 <header
   problemName="networks/zoo_34_217/zoo_34_217.lp"
   solutionName="incumbent"
   solutionIndex="-1"
   objectiveValue="17"
   solutionTypeValue="3"
   solutionTypeString="primal"
   solutionStatusValue="101"
   solutionStatusString="integer optimal solution"
   solutionMethodString="mip"
   primalFeasible="1"
   dualFeasible="1"
   MIPNodes="0"
   MIPIterations="1581"
   writeLevel="3"/>
 <quality
   epInt="1.0000000000000001e-05"
   epRHS="9.9999999999999995e-07"
   maxIntInfeas="2.000000165480742e-09"
   maxPrimalInfeas="1.2000000992884452e-08"
   maxX="4"
   maxSlack="10"/>
 <variables>
  <variable name="Y(4,6)" index="104" value="1"/>
  <variable name="Y(8,10)" index="240" value="1"/>
  <variable name="Y(11,13)" index="342" value="1"/>
  <variable name="Y(14,16)" index="444" value="1"/>
  <variable name="Y(53,1)" index="1716" value="1"/>
  <variable name="Y(59,9)" index="1922" value="1"/>
  <variable name="Y(77,12)" index="2519" value="1"/>
  <variable name="Y(84,2)" index="2740" value="1"/>
  <variable name="Y(95,15)" index="3116" value="1"/>
  <variable name="Y(112,17)" index="3679" value="1"/>
  <variable name="Y(115,3)" index="3764" value="1"/>
  <variable name="Y(116,5)" index="3799" value="1"/>
  <variable name="Y(118,7)" index="3867" value="1"/>
  <variable name="Y(154,14)" index="5062" value="1"/>
  <variable name="Y(208,8)" index="6838" value="1"/>
  <variable name="Y(216,16)" index="7110" value="1"/>
  <variable name="Y(217,11)" index="7138" value="1"/>
  <variable name="X(1,2,84)" index="7244" value="1"/>
  <variable name="X(1,4,11)" index="7388" value="1"/>
  <variable name="X(1,18,53)" index="7647" value="1"/>
  <variable name="X(2,1,53)" index="7864" value="1"/>
  <variable name="X(2,15,4)" index="8032" value="1"/>
  <variable name="X(2,19,84)" index="8329" value="1"/>
  <variable name="X(3,4,84)" index="8546" value="1"/>
  <variable name="X(3,9,22)" index="8701" value="-2.000000165480742e-09"/>
  <variable name="X(3,9,59)" index="8738" value="1.0000000020000002"/>
  <variable name="X(3,14,11)" index="8907" value="1"/>
  <variable name="X(3,20,115)" index="9228" value="1"/>
  <variable name="X(4,1,84)" index="9414" value="1"/>
  <variable name="X(4,3,11)" index="9558" value="1"/>
  <variable name="X(5,12,77)" index="9841" value="1"/>
  <variable name="X(5,14,154)" index="10135" value="1"/>
  <variable name="X(5,22,116)" index="10314" value="1"/>
  <variable name="X(6,7,118)" index="10533" value="1"/>
  <variable name="X(6,13,77)" index="10709" value="1"/>
  <variable name="X(6,23,4)" index="10853" value="1"/>
  <variable name="X(7,6,4)" index="11070" value="1"/>
  <variable name="X(7,15,95)" index="11378" value="1"/>
  <variable name="X(7,24,118)" index="11618" value="1"/>
  <variable name="X(8,11,112)" index="11829" value="1"/>
  <variable name="X(8,12,116)" index="12050" value="1"/>
  <variable name="X(8,25,208)" index="12359" value="1"/>
  <variable name="X(9,3,115)" index="12483" value="1"/>
  <variable name="X(9,12,22)" index="12607" value="-4.9998754168164324e-10"/>
  <variable name="X(9,12,112)" index="12697" value="1.0000000004999876"/>
  <variable name="X(9,26,59)" index="12861" value="1"/>
  <variable name="X(10,11,208)" index="13227" value="1"/>
  <variable name="X(10,16,14)" index="13250" value="1"/>
  <variable name="X(10,27,8)" index="13461" value="1"/>
  <variable name="X(11,8,208)" index="13878" value="1"/>
  <variable name="X(11,10,8)" index="13895" value="1"/>
  <variable name="X(11,17,112)" index="14216" value="1"/>
  <variable name="X(11,28,217)" index="14538" value="1"/>
  <variable name="X(12,5,116)" index="14654" value="1"/>
  <variable name="X(12,8,112)" index="14867" value="1"/>
  <variable name="X(12,9,115)" index="15087" value="1"/>
  <variable name="X(12,29,77)" index="15266" value="1"/>
  <variable name="X(13,6,118)" index="15524" value="1"/>
  <variable name="X(13,14,77)" index="15700" value="1"/>
  <variable name="X(13,30,11)" index="15851" value="1"/>
  <variable name="X(14,3,59)" index="16116" value="1"/>
  <variable name="X(14,5,77)" index="16351" value="1"/>
  <variable name="X(14,13,11)" index="16502" value="1"/>
  <variable name="X(14,31,154)" index="16862" value="1"/>
  <variable name="X(15,2,53)" index="16978" value="1"/>
  <variable name="X(15,7,4)" index="17146" value="1"/>
  <variable name="X(15,32,95)" index="17454" value="1"/>
  <variable name="X(16,10,208)" index="17784" value="1"/>
  <variable name="X(16,17,216)" index="18009" value="1"/>
  <variable name="X(16,33,14)" index="18024" value="1"/>
  <variable name="X(17,11,217)" index="18444" value="1"/>
  <variable name="X(17,34,112)" index="18556" value="1"/>
  <variable name="C(4,15)" index="18674" value="1"/>
  <variable name="C(4,7)" index="18675" value="2"/>
  <variable name="C(4,6)" index="18676" value="3"/>
  <variable name="C(8,10)" index="18698" value="1"/>
  <variable name="C(11,4)" index="18712" value="1"/>
  <variable name="C(11,3)" index="18713" value="2"/>
  <variable name="C(11,14)" index="18714" value="3"/>
  <variable name="C(11,13)" index="18715" value="4"/>
  <variable name="C(14,16)" index="18731" value="1"/>
  <variable name="C(22,9)" index="18768" value="-2.000000165480742e-09"/>
  <variable name="C(53,2)" index="18903" value="1"/>
  <variable name="C(53,1)" index="18904" value="2"/>
  <variable name="C(59,3)" index="18928" value="1"/>
  <variable name="C(59,9)" index="18929" value="2.0000000020000002"/>
  <variable name="C(77,13)" index="19026" value="1"/>
  <variable name="C(77,14)" index="19027" value="2"/>
  <variable name="C(77,5)" index="19028" value="3"/>
  <variable name="C(77,12)" index="19029" value="4"/>
  <variable name="C(84,4)" index="19068" value="1"/>
  <variable name="C(84,1)" index="19069" value="2.0000000000000018"/>
  <variable name="C(84,2)" index="19070" value="3.0000000000000018"/>
  <variable name="C(95,15)" index="19117" value="1"/>
  <variable name="C(112,9)" index="19183" value="-4.9998754168164324e-10"/>
  <variable name="C(112,12)" index="19184" value="1"/>
  <variable name="C(112,8)" index="19185" value="2"/>
  <variable name="C(112,11)" index="19186" value="3"/>
  <variable name="C(112,17)" index="19187" value="4"/>
  <variable name="C(115,9)" index="19209" value="1"/>
  <variable name="C(115,3)" index="19210" value="2"/>
  <variable name="C(116,12)" index="19214" value="1"/>
  <variable name="C(116,5)" index="19215" value="2"/>
  <variable name="C(118,6)" index="19231" value="1"/>
  <variable name="C(118,7)" index="19232" value="2"/>
  <variable name="C(154,14)" index="19394" value="1"/>
  <variable name="C(208,10)" index="19677" value="1"/>
  <variable name="C(208,11)" index="19678" value="2"/>
  <variable name="C(208,8)" index="19679" value="3"/>
  <variable name="C(217,17)" index="19724" value="3"/>
  <variable name="C(217,11)" index="19725" value="4"/>
 </variables>
</CPLEXSolution>
